363,88
560,494
567,443
702,427
801,406
850,283
776,219
871,32
1069,124
1020,160
776,219
704,258
573,193
518,86
363,88
573,193
1101,406
814,474
439,582
441,528
727,702
425,489
593,527
649,613
762,566
891,406
1101,406
980,818
